<number of tasks>
250

<cycle time>
1000

<order strength>
0.596


<task times>
1 214
2 55
3 319
4 184
5 492
6 152
7 197
8 39
9 113
10 189
11 223
12 539
13 170
14 506
15 89
16 205
17 23
18 479
19 105
20 205
21 598
22 535
23 206
24 498
25 21
26 115
27 175
28 96
29 223
30 120
31 477
32 514
33 72
34 36
35 34
36 430
37 55
38 187
39 113
40 90
41 190
42 146
43 68
44 48
45 220
46 493
47 117
48 184
49 90
50 181
51 103
52 31
53 34
54 125
55 261
56 61
57 508
58 276
59 92
60 78
61 371
62 76
63 263
64 212
65 125
66 298
67 527
68 399
69 79
70 189
71 133
72 249
73 256
74 282
75 190
76 61
77 92
78 131
79 268
80 163
81 78
82 192
83 184
84 443
85 334
86 34
87 182
88 414
89 279
90 24
91 532
92 347
93 445
94 34
95 275
96 524
97 228
98 234
99 125
100 77
101 538
102 520
103 131
104 257
105 308
106 218
107 169
108 261
109 89
110 279
111 143
112 348
113 52
114 44
115 62
116 199
117 495
118 164
119 46
120 526
121 185
122 262
123 305
124 131
125 479
126 506
127 268
128 399
129 27
130 150
131 78
132 562
133 94
134 508
135 450
136 84
137 120
138 150
139 517
140 232
141 106
142 49
143 370
144 601
145 386
146 20
147 103
148 213
149 590
150 67
151 459
152 64
153 310
154 392
155 348
156 432
157 127
158 388
159 113
160 49
161 167
162 200
163 151
164 74
165 177
166 178
167 22
168 286
169 471
170 149
171 100
172 323
173 511
174 165
175 50
176 212
177 122
178 454
179 42
180 106
181 257
182 285
183 37
184 245
185 78
186 85
187 110
188 629
189 149
190 141
191 40
192 53
193 108
194 261
195 221
196 497
197 277
198 451
199 47
200 181
201 393
202 124
203 64
204 372
205 153
206 281
207 105
208 188
209 158
210 478
211 106
212 355
213 33
214 483
215 185
216 559
217 70
218 228
219 230
220 517
221 200
222 527
223 164
224 361
225 250
226 145
227 75
228 198
229 146
230 102
231 289
232 429
233 69
234 102
235 103
236 59
237 286
238 127
239 252
240 126
241 133
242 224
243 186
244 512
245 65
246 486
247 462
248 578
249 425
250 122

<precedence relations>
1,8
2,9
3,10
4,11
5,13
5,15
5,16
5,42
6,12
6,14
6,15
7,12
7,13
7,14
7,16
8,19
9,17
10,18
11,19
12,19
12,20
13,19
13,25
13,49
14,30
15,19
16,19
17,21
18,22
19,24
19,27
19,34
20,23
20,24
20,25
20,26
20,27
21,28
22,29
23,30
23,31
23,34
23,35
24,30
24,32
25,30
25,31
25,36
26,156
26,159
26,168
26,214
27,33
28,37
29,38
30,39
30,40
31,196
31,216
31,224
32,41
32,43
32,50
33,40
34,105
35,40
35,42
36,40
37,44
38,47
39,46
40,45
40,47
40,50
40,51
41,47
42,47
42,49
42,52
43,47
43,48
43,52
44,56
45,53
46,56
47,57
48,54
48,56
49,55
49,56
49,112
50,56
51,63
51,73
52,56
52,57
53,58
54,59
55,60
56,62
57,61
57,62
57,63
57,112
58,64
59,65
60,66
61,66
61,67
61,68
61,69
62,67
62,73
62,98
63,66
63,74
64,70
65,71
66,72
67,74
67,76
67,77
67,78
67,83
68,73
68,92
69,73
69,74
69,75
69,86
70,79
71,80
72,81
73,82
73,83
73,84
74,82
75,84
75,166
76,84
76,85
76,86
77,82
77,114
78,132
78,156
78,166
78,188
78,205
79,88
80,90
81,91
82,87
82,89
83,89
83,90
83,93
84,89
85,113
86,89
86,92
87,95
88,96
89,94
89,134
90,97
91,98
91,157
92,97
93,97
94,99
95,100
96,103
97,101
97,102
97,104
97,105
97,106
98,104
99,111
100,108
101,109
102,110
103,112
104,107
104,113
105,111
105,114
106,111
107,116
108,117
109,115
110,118
111,123
111,176
112,188
112,248
113,119
113,120
113,121
113,122
114,119
114,121
115,124
116,126
117,127
118,125
119,128
119,129
119,130
119,132
119,155
119,175
120,133
120,134
120,156
120,160
120,213
121,134
121,197
123,131
123,159
124,136
125,135
126,137
127,138
128,139
129,140
130,142
131,141
131,143
131,144
132,144
133,161
133,177
133,215
133,235
134,143
135,145
136,146
137,149
138,149
139,147
140,150
141,148
142,149
143,163
143,170
144,151
144,152
145,155
146,153
147,156
148,157
149,154
150,159
150,160
151,164
151,169
151,170
152,158
152,161
153,163
154,162
155,166
155,188
155,215
156,170
156,177
157,230
158,164
158,165
158,167
158,168
158,169
159,165
160,208
160,229
161,217
162,176
163,175
163,179
163,207
164,171
164,178
165,172
165,178
166,173
167,174
167,197
168,209
169,177
169,186
169,208
171,181
172,182
173,183
174,185
175,180
175,184
175,228
176,188
176,189
176,236
177,187
177,216
178,197
178,206
179,186
179,188
179,190
180,191
181,196
182,192
183,197
184,193
185,194
186,195
186,230
187,198
187,199
187,233
187,237
188,200
189,217
190,243
191,205
192,202
193,203
194,204
195,201
195,206
195,209
195,229
196,208
196,229
197,207
197,222
199,209
200,235
201,210
202,213
203,214
204,215
205,236
206,211
207,212
207,216
208,221
208,223
208,225
209,217
210,218
211,219
212,220
213,249
213,250
214,223
214,237
215,221
215,222
215,223
216,225
217,224
218,226
219,228
220,229
221,227
221,230
222,234
223,233
223,234
223,248
225,250
226,232
227,231
228,233
228,235
229,234
229,235
229,237
229,238
230,236
230,238
231,239
232,240
233,241
233,242
233,243
234,244
235,243
235,249
238,250
239,245
240,248
241,246
242,247
243,250
244,249

<end>
